max: 100f12 + 100f13 - 10q1 - 20q2;

1y12 + 1z12 + 2y13 + 2z13 + 1y23 + 1z23 + 2y24 + 2z24 + 3y34 + 3z34  <= 4q1 + 5q2;
1y12 + 1z12 + 2y13 + 2z13 + 2y23 + 2z23 + 1y24 + 1z24 + 4y34 + 4z34  <= 2q1 + 2q2;
5y12 + 5z12 + 0y13 + 0z13 + 0y23 + 0z23 + 0y24 + 0z24 + 5y34 + 5z34  <= 0q1 + q2;

f12 <= 5;
f12 >= -5;
f13 <= 2;
f13 >= -2;
f23 <= 5;
f23 >= -5;
f24 <= 2;
f24 >= -2;
f34 <= 5;
f34 >= -5;

y12 <= 5;
y12 >= 0;
z12 <= 5;
z12 >= 0;
//z12 <= 0;
//z12 >= -5;
y12 - z12 <= 5;

y13 <= 2;
y13 >= 0;
z13 <= 2;
z13 >= 0;
//z13 <= 0;
//z13 >= -2;
y13 - z13 <= 5;

y23 <= 5;
y23 <= 5;
z23 >= 0;
z23 >= 0;
//z23 <= 0;
//z23 >= -5;
y23 - z23 <= 5;

y24 <= 2;
y24 >= 0;
z24 <= 2;
z24 >= 0;
//z24 <= 0;
//z24 >= -2;
y24 - z24 <= 2;

y34 <= 5;
y34 >= 0;
z34 <= 5;
z34 >= 0;
//z34 <= 0;
//z34 >= -5;
y34 - z34 <= 5;

f12 = f23 + f24;
f13 + f23 = f34;

f12 = y12 - z12;
f13 = y13 - z13;
f23 = y23 - z23;
f24 = y24 - z24;
f34 = y34 - z34;

q1 >= 0;
q2 >= 0;
